1	10	33	52	61	62	62	65	68	68	73	73	79	85	70	50	41	43	43	45	47	47	43	42	62	55	47	46	46	43	42	47	57	58	73	84	64	61	59	58	58	64	66	74	68	89	77	65	65	69	76	79	86	88	89	96	109	114	109	111	87	85	91	87	83	79	74	68	77	85	78	69	68	64	55	51	51	47	43	42	39	31	19	12	6	1